CPXPARAM_Read_DataCheck                          1
Found incumbent of value 0.000000 after 0.00 sec. (0.05 ticks)
Tried aggregator 1 time.
MIP Presolve modified 1 coefficients.
Reduced MIP has 231 rows, 2010 columns, and 10040 nonzeros.
Reduced MIP has 2010 binaries, 0 generals, 0 SOSs, and 0 indicators.
Presolve time = 0.00 sec. (3.91 ticks)
Probing time = 0.02 sec. (1.59 ticks)
Tried aggregator 1 time.
Reduced MIP has 231 rows, 2010 columns, and 10040 nonzeros.
Reduced MIP has 2010 binaries, 0 generals, 0 SOSs, and 0 indicators.
Presolve time = 0.00 sec. (4.65 ticks)
Probing time = 0.00 sec. (1.75 ticks)
Clique table members: 3584.
MIP emphasis: balance optimality and feasibility.
MIP search method: dynamic search.
Parallel mode: deterministic, using up to 4 threads.
Root relaxation solution time = 0.00 sec. (6.48 ticks)

        Nodes                                         Cuts/
   Node  Left     Objective  IInf  Best Integer    Best Bound    ItCnt     Gap

*     0+    0                            0.0000    12588.0000              --- 
      0     0     2959.5508    10        0.0000     2959.5508      384     --- 
      0     0     2709.9885   251        0.0000     Cuts: 157      675     --- 
*     0+    0                         2552.0000     2709.9885             6.19%
      0     0        cutoff           2552.0000     2552.0000      961    0.00%
Elapsed time = 0.28 sec. (161.95 ticks, tree = 0.01 MB, solutions = 2)

Clique cuts applied:  252
Cover cuts applied:  12
Mixed integer rounding cuts applied:  14
Zero-half cuts applied:  4
Lift and project cuts applied:  5
Gomory fractional cuts applied:  1

Root node processing (before b&c):
  Real time             =    0.28 sec. (162.08 ticks)
Parallel b&c, 4 threads:
  Real time             =    0.00 sec. (0.00 ticks)
  Sync time (average)   =    0.00 sec.
  Wait time (average)   =    0.00 sec.
                          ------------
Total (root+branch&cut) =    0.28 sec. (162.08 ticks)
